58
raw_data/mm-rcpsp/MMLIB50/J5012_3.mm
Time limit set to 60 seconds
Running CP solver
/home/omastto1/General-Optimization-Solver/src/solvers/mmrcpsp.py:42(stream:276:6): Warning: Cumulative expression 'pulse': height is zero, expression is zero everywhere.
                                                                                               VarCumulAtom_419 = pulse(task_0_mode_0, 0)
/home/omastto1/General-Optimization-Solver/src/solvers/mmrcpsp.py:42(stream:276:3906): Warning: Cumulative expression 'pulse': height is zero, expression is zero everywhere.
                                                                                                  VarCumulAtom_570 = pulse(task_51_mode_0, 0)
/home/omastto1/General-Optimization-Solver/src/solvers/mmrcpsp.py:42(stream:277:6): Warning: Cumulative expression 'pulse': height is zero, expression is zero everywhere.
                                                                                               VarCumulAtom_574 = pulse(task_0_mode_0, 0)
/home/omastto1/General-Optimization-Solver/src/solvers/mmrcpsp.py:42(stream:277:3907): Warning: Cumulative expression 'pulse': height is zero, expression is zero everywhere.
                                                                                                  VarCumulAtom_725 = pulse(task_51_mode_0, 0)
 ! --------------------------------------------------- CP Optimizer 20.1.0.0 --
 ! Minimization problem - 205 variables, 287 constraints
 ! TimeLimit            = 60
 ! Workers              = 14
 ! LogVerbosity         = Terse
 ! Initial process time : 0.00s (0.00s extraction + 0.00s propagation)
 !  . Log search space  : 524.1 (before), 524.1 (after)
 !  . Memory usage      : 1.3 MB (before), 1.3 MB (after)
 ! Using parallel search with 14 workers.
 ! ----------------------------------------------------------------------------
 !          Best Branches  Non-fixed    W       Branch decision
                        0        205                 -
 + New bound is 18
 ! Using iterative diving.
 ! Using temporal relaxation.
 *            49      126  0.84s        1      (gap is 63.27%)
 *            44      333  0.84s        1      (gap is 59.09%)
 *            37      515  0.84s        1      (gap is 51.35%)
 *            35      623  0.84s        1      (gap is 48.57%)
 *            34      781  0.84s        1      (gap is 47.06%)
 *            33      955  0.84s        1      (gap is 45.45%)
 *            32     1313  0.84s        1      (gap is 43.75%)
 *            31     1625  0.84s        1      (gap is 41.94%)
 *            28      941  0.84s        5      (gap is 35.71%)
 *            27     3446  1.59s       10      (gap is 33.33%)
 ! Using failure-directed search.
 *            26     4846  2.33s       10      (gap is 30.77%)
 *            25    10009  3.08s        2      (gap is 28.00%)
 *            24    23184  6.71s        5      (gap is 25.00%)
 ! ----------------------------------------------------------------------------
 ! Search terminated by limit, 13 solutions found.
 ! Best objective         : 24 (gap is 25.00%)
 ! Best bound             : 18
 ! ----------------------------------------------------------------------------
 ! Number of branches     : 5350912
 ! Number of fails        : 1036072
 ! Total memory usage     : 19.6 MB (19.5 MB CP Optimizer + 0.2 MB Concert)
 ! Time spent in solve    : 60.05s (60.05s engine + 0.00s extraction)
 ! Search speed (br. / s) : 89122.5
 ! ----------------------------------------------------------------------------
task_0: (start=0, end=0, size=0, length=0)
Task 0 is scheduled in mode 0 from 0 to 0
task_1: (start=0, end=1, size=1, length=1)
Task 1 is scheduled in mode 0 from 0 to 1
task_2: (start=1, end=3, size=2, length=2)
Task 2 is scheduled in mode 0 from 1 to 3
task_3: (start=2, end=4, size=2, length=2)
Task 3 is scheduled in mode 0 from 2 to 4
task_4: (start=0, end=10, size=10, length=10)
Task 4 is scheduled in mode 2 from 0 to 10
task_5: (start=4, end=10, size=6, length=6)
Task 5 is scheduled in mode 1 from 4 to 10
task_6: (start=1, end=2, size=1, length=1)
Task 6 is scheduled in mode 0 from 1 to 2
task_7: (start=5, end=6, size=1, length=1)
Task 7 is scheduled in mode 0 from 5 to 6
task_8: (start=1, end=7, size=6, length=6)
Task 8 is scheduled in mode 2 from 1 to 7
task_9: (start=1, end=2, size=1, length=1)
Task 9 is scheduled in mode 0 from 1 to 2
task_10: (start=2, end=5, size=3, length=3)
Task 10 is scheduled in mode 0 from 2 to 5
task_11: (start=2, end=4, size=2, length=2)
Task 11 is scheduled in mode 0 from 2 to 4
task_12: (start=7, end=8, size=1, length=1)
Task 12 is scheduled in mode 0 from 7 to 8
task_13: (start=0, end=1, size=1, length=1)
Task 13 is scheduled in mode 0 from 0 to 1
task_14: (start=4, end=7, size=3, length=3)
Task 14 is scheduled in mode 0 from 4 to 7
task_15: (start=10, end=11, size=1, length=1)
Task 15 is scheduled in mode 0 from 10 to 11
task_16: (start=0, end=1, size=1, length=1)
Task 16 is scheduled in mode 0 from 0 to 1
task_17: (start=3, end=9, size=6, length=6)
Task 17 is scheduled in mode 2 from 3 to 9
task_18: (start=8, end=10, size=2, length=2)
Task 18 is scheduled in mode 0 from 8 to 10
task_19: (start=10, end=11, size=1, length=1)
Task 19 is scheduled in mode 0 from 10 to 11
task_20: (start=0, end=2, size=2, length=2)
Task 20 is scheduled in mode 0 from 0 to 2
task_21: (start=10, end=11, size=1, length=1)
Task 21 is scheduled in mode 0 from 10 to 11
task_22: (start=8, end=9, size=1, length=1)
Task 22 is scheduled in mode 0 from 8 to 9
task_23: (start=6, end=7, size=1, length=1)
Task 23 is scheduled in mode 0 from 6 to 7
task_24: (start=11, end=12, size=1, length=1)
Task 24 is scheduled in mode 0 from 11 to 12
task_25: (start=11, end=13, size=2, length=2)
Task 25 is scheduled in mode 0 from 11 to 13
task_26: (start=9, end=11, size=2, length=2)
Task 26 is scheduled in mode 1 from 9 to 11
task_27: (start=0, end=1, size=1, length=1)
Task 27 is scheduled in mode 0 from 0 to 1
task_28: (start=11, end=12, size=1, length=1)
Task 28 is scheduled in mode 0 from 11 to 12
task_29: (start=11, end=12, size=1, length=1)
Task 29 is scheduled in mode 0 from 11 to 12
task_30: (start=11, end=13, size=2, length=2)
Task 30 is scheduled in mode 0 from 11 to 13
task_31: (start=13, end=20, size=7, length=7)
Task 31 is scheduled in mode 2 from 13 to 20
task_32: (start=16, end=19, size=3, length=3)
Task 32 is scheduled in mode 0 from 16 to 19
task_33: (start=11, end=20, size=9, length=9)
Task 33 is scheduled in mode 2 from 11 to 20
task_34: (start=16, end=18, size=2, length=2)
Task 34 is scheduled in mode 0 from 16 to 18
task_35: (start=13, end=20, size=7, length=7)
Task 35 is scheduled in mode 2 from 13 to 20
task_36: (start=13, end=14, size=1, length=1)
Task 36 is scheduled in mode 0 from 13 to 14
task_37: (start=20, end=24, size=4, length=4)
Task 37 is scheduled in mode 2 from 20 to 24
task_38: (start=22, end=24, size=2, length=2)
Task 38 is scheduled in mode 1 from 22 to 24
task_39: (start=16, end=24, size=8, length=8)
Task 39 is scheduled in mode 2 from 16 to 24
task_40: (start=12, end=16, size=4, length=4)
Task 40 is scheduled in mode 0 from 12 to 16
task_41: (start=14, end=24, size=10, length=10)
Task 41 is scheduled in mode 2 from 14 to 24
task_42: (start=12, end=13, size=1, length=1)
Task 42 is scheduled in mode 0 from 12 to 13
task_43: (start=20, end=22, size=2, length=2)
Task 43 is scheduled in mode 0 from 20 to 22
task_44: (start=12, end=22, size=10, length=10)
Task 44 is scheduled in mode 2 from 12 to 22
task_45: (start=13, end=23, size=10, length=10)
Task 45 is scheduled in mode 2 from 13 to 23
task_46: (start=12, end=18, size=6, length=6)
Task 46 is scheduled in mode 1 from 12 to 18
task_47: (start=22, end=24, size=2, length=2)
Task 47 is scheduled in mode 0 from 22 to 24
task_48: (start=18, end=24, size=6, length=6)
Task 48 is scheduled in mode 0 from 18 to 24
task_49: (start=7, end=11, size=4, length=4)
Task 49 is scheduled in mode 0 from 7 to 11
task_50: (start=4, end=11, size=7, length=7)
Task 50 is scheduled in mode 2 from 4 to 11
task_51: (start=24, end=24, size=0, length=0)
Task 51 is scheduled in mode 0 from 24 to 24
Feasible solution found
Objective value: 24
Solution is 33.3 % worse than the lower bound.
